p edge 89 230
e 1 2
e 1 7
e 1 17
e 1 19
e 1 26
e 1 30
e 1 40
e 1 48
e 1 49
e 1 54
e 1 56
e 1 69
e 1 70
e 1 75
e 1 79
e 2 3
e 2 6
e 2 9
e 2 10
e 2 16
e 2 21
e 2 26
e 2 36
e 2 42
e 2 44
e 2 49
e 3 4
e 3 5
e 3 6
e 3 10
e 3 12
e 3 13
e 3 18
e 3 20
e 3 25
e 3 29
e 3 31
e 3 36
e 3 42
e 3 45
e 3 49
e 3 78
e 4 6
e 4 13
e 4 27
e 4 47
e 4 52
e 4 66
e 5 13
e 5 15
e 5 21
e 5 25
e 5 36
e 5 45
e 5 50
e 5 52
e 5 53
e 5 68
e 6 10
e 6 13
e 6 27
e 6 37
e 6 49
e 6 52
e 7 59
e 7 63
e 7 79
e 8 14
e 8 23
e 8 24
e 8 26
e 8 33
e 8 35
e 8 38
e 8 81
e 9 18
e 9 22
e 9 32
e 9 46
e 9 66
e 10 37
e 10 49
e 10 54
e 10 60
e 10 77
e 11 12
e 11 17
e 11 19
e 11 31
e 11 34
e 11 55
e 11 56
e 12 17
e 12 31
e 12 42
e 12 53
e 12 55
e 12 56
e 12 78
e 13 21
e 13 42
e 13 44
e 13 64
e 13 68
e 14 23
e 14 24
e 14 33
e 14 34
e 14 35
e 14 48
e 14 65
e 14 80
e 15 20
e 15 23
e 15 33
e 15 39
e 15 52
e 15 58
e 15 88
e 16 21
e 16 36
e 16 81
e 17 30
e 17 31
e 17 50
e 17 55
e 17 56
e 18 20
e 18 27
e 18 29
e 18 31
e 18 43
e 18 66
e 19 34
e 19 55
e 19 56
e 19 75
e 19 79
e 20 23
e 20 29
e 20 31
e 20 53
e 20 58
e 21 36
e 21 42
e 21 68
e 22 32
e 22 46
e 22 67
e 23 58
e 23 73
e 23 74
e 24 29
e 24 33
e 24 34
e 24 35
e 24 48
e 24 58
e 24 65
e 24 80
e 25 45
e 25 68
e 26 35
e 26 38
e 26 40
e 26 49
e 26 54
e 27 43
e 28 32
e 28 46
e 28 70
e 29 31
e 29 35
e 29 51
e 29 58
e 30 55
e 30 56
e 30 57
e 31 42
e 31 78
e 32 46
e 32 57
e 32 61
e 33 35
e 33 59
e 33 88
e 34 48
e 34 56
e 34 65
e 34 76
e 34 80
e 35 38
e 35 58
e 36 45
e 37 40
e 39 41
e 39 86
e 39 87
e 40 54
e 41 63
e 41 86
e 41 87
e 42 78
e 44 64
e 46 61
e 47 83
e 48 65
e 48 69
e 48 76
e 48 80
e 51 62
e 51 71
e 51 72
e 54 77
e 55 56
e 57 61
e 62 71
e 62 72
e 62 89
e 65 76
e 65 80
e 71 72
e 71 89
e 73 74
e 75 79
e 78 82
e 78 83
e 82 83
e 84 85
e 86 87
